NAME          DCAP_2_4_3_300_SS74
ROWS
 N  OBJ
 L  CON1
 L  CON2
 L  CON3
 L  CON4
 L  CON5
 L  CON6
 L  CON7
 L  CON8
 L  CON9
 L  CON10
 L  CON11
 L  CON12
 E  CON13
 E  CON14
 E  CON15
 E  CON16
 E  CON17
 E  CON18
 E  CON19
 E  CON20
 E  CON21
 E  CON22
 E  CON23
 E  CON24
COLUMNS
    x[1,1]    OBJ       6.180167      CON1      1.000000    
    x[1,1]    CON7      -1.000000     CON8      -1.000000   
    x[1,1]    CON9      -1.000000   
    x[1,2]    OBJ       6.563535      CON2      1.000000    
    x[1,2]    CON8      -1.000000     CON9      -1.000000   
    x[1,3]    OBJ       7.443064      CON3      1.000000    
    x[1,3]    CON9      -1.000000   
    x[2,1]    OBJ       6.732585      CON4      1.000000    
    x[2,1]    CON10     -1.000000     CON11     -1.000000   
    x[2,1]    CON12     -1.000000   
    x[2,2]    OBJ       5.039546      CON5      1.000000    
    x[2,2]    CON11     -1.000000     CON12     -1.000000   
    x[2,3]    OBJ       6.054841      CON6      1.000000    
    x[2,3]    CON12     -1.000000   
    MARKER    'MARKER'                'INTORG'
    u[1,1]    OBJ       48.076654     CON1      -1.000000   
    u[1,2]    OBJ       20.066487     CON2      -1.000000   
    u[1,3]    OBJ       32.230043     CON3      -1.000000   
    u[2,1]    OBJ       49.996186     CON4      -1.000000   
    u[2,2]    OBJ       49.466655     CON5      -1.000000   
    u[2,3]    OBJ       27.484319     CON6      -1.000000   
    y[1,1,1]  OBJ       5.766724      CON7      0.515882    
    y[1,1,1]  CON13     1.000000    
    y[1,1,2]  OBJ       9.788269      CON8      0.839909    
    y[1,1,2]  CON14     1.000000    
    y[1,1,3]  OBJ       6.981074      CON9      1.010145    
    y[1,1,3]  CON15     1.000000    
    y[1,2,1]  OBJ       6.306933      CON7      0.675502    
    y[1,2,1]  CON16     1.000000    
    y[1,2,2]  OBJ       5.663022      CON8      1.081240    
    y[1,2,2]  CON17     1.000000    
    y[1,2,3]  OBJ       9.347566      CON9      0.571858    
    y[1,2,3]  CON18     1.000000    
    y[1,3,1]  OBJ       6.058947      CON7      0.834347    
    y[1,3,1]  CON19     1.000000    
    y[1,3,2]  OBJ       5.040852      CON8      0.831648    
    y[1,3,2]  CON20     1.000000    
    y[1,3,3]  OBJ       7.908752      CON9      1.231829    
    y[1,3,3]  CON21     1.000000    
    y[1,4,1]  OBJ       9.235563      CON7      1.002187    
    y[1,4,1]  CON22     1.000000    
    y[1,4,2]  OBJ       5.912809      CON8      0.689507    
    y[1,4,2]  CON23     1.000000    
    y[1,4,3]  OBJ       7.666826      CON9      1.043128    
    y[1,4,3]  CON24     1.000000    
    y[2,1,1]  OBJ       9.248469      CON10     0.515882    
    y[2,1,1]  CON13     1.000000    
    y[2,1,2]  OBJ       7.659120      CON11     0.839909    
    y[2,1,2]  CON14     1.000000    
    y[2,1,3]  OBJ       6.912838      CON12     1.010145    
    y[2,1,3]  CON15     1.000000    
    y[2,2,1]  OBJ       9.744896      CON10     0.675502    
    y[2,2,1]  CON16     1.000000    
    y[2,2,2]  OBJ       7.322452      CON11     1.081240    
    y[2,2,2]  CON17     1.000000    
    y[2,2,3]  OBJ       5.059524      CON12     0.571858    
    y[2,2,3]  CON18     1.000000    
    y[2,3,1]  OBJ       7.566747      CON10     0.834347    
    y[2,3,1]  CON19     1.000000    
    y[2,3,2]  OBJ       5.983571      CON11     0.831648    
    y[2,3,2]  CON20     1.000000    
    y[2,3,3]  OBJ       7.978979      CON12     1.231829    
    y[2,3,3]  CON21     1.000000    
    y[2,4,1]  OBJ       5.481678      CON10     1.002187    
    y[2,4,1]  CON22     1.000000    
    y[2,4,2]  OBJ       7.667643      CON11     0.689507    
    y[2,4,2]  CON23     1.000000    
    y[2,4,3]  OBJ       5.416983      CON12     1.043128    
    y[2,4,3]  CON24     1.000000    
    z[1,1]    OBJ       699.259388    CON13     1.000000    
    z[1,2]    OBJ       578.875763    CON14     1.000000    
    z[1,3]    OBJ       764.053171    CON15     1.000000    
    z[2,1]    OBJ       606.009178    CON16     1.000000    
    z[2,2]    OBJ       819.990408    CON17     1.000000    
    z[2,3]    OBJ       638.214135    CON18     1.000000    
    z[3,1]    OBJ       620.339275    CON19     1.000000    
    z[3,2]    OBJ       945.440340    CON20     1.000000    
    z[3,3]    OBJ       545.699286    CON21     1.000000    
    z[4,1]    OBJ       655.440896    CON22     1.000000    
    z[4,2]    OBJ       931.905164    CON23     1.000000    
    z[4,3]    OBJ       847.355965    CON24     1.000000    
    MARKER    'MARKER'                 'INTEND'
RHS
    RHS       CON1      -0.000000     CON2      -0.000000   
    RHS       CON3      -0.000000     CON4      -0.000000   
    RHS       CON5      -0.000000     CON6      -0.000000   
    RHS       CON7      -0.000000     CON8      -0.000000   
    RHS       CON9      -0.000000     CON10     -0.000000   
    RHS       CON11     -0.000000     CON12     -0.000000   
    RHS       CON13     1.000000      CON14     1.000000    
    RHS       CON15     1.000000      CON16     1.000000    
    RHS       CON17     1.000000      CON18     1.000000    
    RHS       CON19     1.000000      CON20     1.000000    
    RHS       CON21     1.000000      CON22     1.000000    
    RHS       CON23     1.000000      CON24     1.000000    
BOUNDS
 BV BOUND     u[1,1]  
 BV BOUND     u[1,2]  
 BV BOUND     u[1,3]  
 BV BOUND     u[2,1]  
 BV BOUND     u[2,2]  
 BV BOUND     u[2,3]  
 BV BOUND     y[1,1,1]
 BV BOUND     y[1,1,2]
 BV BOUND     y[1,1,3]
 BV BOUND     y[1,2,1]
 BV BOUND     y[1,2,2]
 BV BOUND     y[1,2,3]
 BV BOUND     y[1,3,1]
 BV BOUND     y[1,3,2]
 BV BOUND     y[1,3,3]
 BV BOUND     y[1,4,1]
 BV BOUND     y[1,4,2]
 BV BOUND     y[1,4,3]
 BV BOUND     y[2,1,1]
 BV BOUND     y[2,1,2]
 BV BOUND     y[2,1,3]
 BV BOUND     y[2,2,1]
 BV BOUND     y[2,2,2]
 BV BOUND     y[2,2,3]
 BV BOUND     y[2,3,1]
 BV BOUND     y[2,3,2]
 BV BOUND     y[2,3,3]
 BV BOUND     y[2,4,1]
 BV BOUND     y[2,4,2]
 BV BOUND     y[2,4,3]
 BV BOUND     z[1,1]  
 BV BOUND     z[1,2]  
 BV BOUND     z[1,3]  
 BV BOUND     z[2,1]  
 BV BOUND     z[2,2]  
 BV BOUND     z[2,3]  
 BV BOUND     z[3,1]  
 BV BOUND     z[3,2]  
 BV BOUND     z[3,3]  
 BV BOUND     z[4,1]  
 BV BOUND     z[4,2]  
 BV BOUND     z[4,3]  
ENDATA
